\ LP format - for model browsing. Use MPS format to capture full model detail.
Minimize
  10 h + 6 d
Subject To
 R0: slack_1 + h + d = 150
 R1: - slack_2 + d = 10
 R2: slack_0 - 0.3 h + 0.7 d = 0
Bounds
Generals
 h d
End
